\ LP format - for model browsing. Use MPS format to capture full model detail.
Maximize
 
Subject To
 R0: - 0.2202166326201577 y[0,0] - 0.6646193399160556 y[0,1]
   - 0.0600442316473147 y[0,2] - 0.5150789084539286 y[0,3]
   - 0.3683629889362126 y[0,4] - 0.2933408185388298 y[0,5]
   - 0.1429601277700356 y[0,6] - 0.2075549305815969 y[0,7]
   - 0.5921367552739594 y[0,8] - 0.01268217158991 y[0,9]
   - 0.0123557119684856 y[0,10] - 0.2267878792410942 y[0,11]
   - 0.0386691074728458 y[0,12] - 0.2331957317687144 y[0,13]
   - 0.0157103996536224 y[0,14] - 0.0220603713996692 y[0,15]
   - 0.00264972675134386 y[0,16] - 0.0100215980500255 y[0,17]
   - 0.0898648854472153 y[0,18] - 0.538085339226936 y[0,19]
   - 0.392679907481574 y[1,0] - 0.742651194790561 y[1,1]
   - 0.0459702344693826 y[1,2] - 0.7378354272687492 y[1,3]
   - 0.1028382567500253 y[1,4] - 0.2906280648776368 y[1,5]
   - 0.0468336454009143 y[1,6] - 0.219866144555695 y[1,7]
   - 0.3206573758496073 y[1,8] - 0.0137147742656272 y[1,9]
   - 0.0041286719322749 y[1,10] - 0.3319880942434212 y[1,11]
   - 0.0310520114589025 y[1,12] - 0.1432118108305963 y[1,13]
   - 0.00415556946367455 y[1,14] - 0.1563798687902483 y[1,15]
   - 0.0802183464672572 y[1,16] - 0.00742555509952532 y[1,17]
   - 0.1089880835233054 y[1,18] - 0.4216923955305818 y[1,19]
   - 0.1442559607191908 y[2,0] - 0.4061300437527642 y[2,1]
   - 0.0694944829024765 y[2,2] - 0.0569312306856496 y[2,3]
   - 0.5797460116302581 y[2,4] - 0.3045785023227575 y[2,5]
   - 0.0687321682114886 y[2,6] - 0.0300068388888513 y[2,7]
   - 0.1938195890651132 y[2,8] - 0.0120295851641684 y[2,9]
   - 0.00889852754651474 y[2,10] - 0.1880704528538962 y[2,11]
   - 0.0672826337667219 y[2,12] - 0.0257092704652437 y[2,13]
   - 0.0461953745724543 y[2,14] - 0.0408421493921599 y[2,15]
   - 0.0855932626024776 y[2,16] - 0.00304867418627287 y[2,17]
   - 0.0538515718515369 y[2,18] - 0.1511724035727083 y[2,19]
   - 0.0637880557765588 y[3,0] - 0.1025706713675642 y[3,1]
   - 0.0653802262567389 y[3,2] - 0.1306245558105097 y[3,3]
   - 0.1709261087885763 y[3,4] - 0.1674611073075296 y[3,5]
   - 0.2682192121170922 y[3,6] - 0.0225997518863416 y[3,7]
   - 0.5148875716300442 y[3,8] - 0.00317841558253933 y[3,9]
   - 0.0152386893407145 y[3,10] - 0.2009556306101936 y[3,11]
   - 0.0664921065730972 y[3,12] - 0.1523853779807886 y[3,13]
   - 0.1634962099017507 y[3,14] - 0.00992200390023458 y[3,15]
   - 0.0370633318697361 y[3,16] - 0.00144671260229325 y[3,17]
   - 0.0341995425653749 y[3,18] - 0.0734307504301775 y[3,19]
   - 0.1275937718275712 y[4,0] - 0.384971045308604 y[4,1]
   - 0.00639004837265341 y[4,2] - 0.6545949563319879 y[4,3]
   - 0.4926534658236599 y[4,4] - 0.1205299273191335 y[4,5]
   - 0.1709456004510965 y[4,6] - 0.0218641023805034 y[4,7]
   - 0.3538987943383121 y[4,8] - 0.030736092094574 y[4,9]
   - 0.00497160760271391 y[4,10] - 0.2861827160793503 y[4,11]
   - 0.00897201743502659 y[4,12] - 0.1804721837131921 y[4,13]
   - 0.0640053164229368 y[4,14] - 0.046382439626297 y[4,15]
   - 0.0768655882822748 y[4,16] - 0.000242019 y[4,17]
   - 0.0957295566443405 y[4,18] - 0.00290405933410244 y[4,19]
   - 0.2719803251912862 y[5,0] - 0.2509160920907801 y[5,1]
   - 0.0732363012128381 y[5,2] - 0.9095583071955189 y[5,3]
   - 0.2162880052280238 y[5,4] - 0.2616689959950707 y[5,5]
   - 0.1934206209902934 y[5,6] - 0.1331882715415777 y[5,7]
   - 0.1370757899208994 y[5,8] - 0.0315117843346161 y[5,9]
   - 0.00697786747451916 y[5,10] - 0.3629364182410316 y[5,11]
   - 0.0476164039317475 y[5,12] - 0.0749365593393469 y[5,13]
   - 0.1799802707120472 y[5,14] - 0.1003917618430118 y[5,15]
   - 0.1154731832219061 y[5,16] - 0.006996329859405 y[5,17]
   - 0.1018265885261874 y[5,18] - 0.4283171175520726 y[5,19]
   - 0.2910151702761097 y[6,0] - 0.4658764454090722 y[6,1]
   - 0.0952402045586534 y[6,2] - 0.6087649228772741 y[6,3]
   - 0.3685371033356231 y[6,4] - 0.2754009955968124 y[6,5]
   - 0.00627043481161234 y[6,6] - 0.0701897681194092 y[6,7]
   - 0.4056533389392425 y[6,8] - 0.00959419835467762 y[6,9]
   - 0.00964478861409011 y[6,10] - 0.1838541849066707 y[6,11]
   - 0.00922227146953507 y[6,12] - 0.0751495439777056 y[6,13]
   - 0.1260539613658407 y[6,14] - 0.1496037797587427 y[6,15]
   - 0.075268328280742 y[6,16] - 0.00786207066473097 y[6,17]
   - 0.0753076877980243 y[6,18] - 0.2668237859057879 y[6,19]
   - 0.3597478394983723 y[7,0] - 0.3415720911632457 y[7,1]
   - 0.0434186541162351 y[7,2] - 0.8431365152421203 y[7,3]
   - 0.7009764268712088 y[7,4] - 0.3196797262565543 y[7,5]
   - 0.0327442124618168 y[7,6] - 0.2140041803232354 y[7,7]
   - 0.4388760704811061 y[7,8] - 0.0330364566887639 y[7,9]
   - 0.00233229987396187 y[7,10] - 0.3722487399887501 y[7,11]
   - 0.0110615560555289 y[7,12] - 0.155084684950006 y[7,13]
   - 0.0273841407451189 y[7,14] - 0.2147082158688985 y[7,15]
   - 0.1058033728001674 y[7,16] - 0.00684982334118493 y[7,17]
   - 0.0470232768867825 y[7,18] - 0.0427784212988108 y[7,19]
   - 0.2798499213580609 y[8,0] - 0.4214733223931776 y[8,1]
   - 0.0719275181571169 y[8,2] - 0.8189925412795048 y[8,3]
   - 0.8482047599015983 y[8,4] - 0.3886736972625224 y[8,5]
   - 0.00382700163234777 y[8,6] - 0.083782781176577 y[8,7]
   - 0.4485534366707872 y[8,8] - 0.00567658146049502 y[8,9]
   - 0.0081313308555783 y[8,10] - 0.0232998969690311 y[8,11]
   - 0.0136145782304845 y[8,12] - 0.00466639920049809 y[8,13]
   - 0.1755349105826117 y[8,14] - 0.0566957590740249 y[8,15]
   - 0.0452601443643105 y[8,16] - 0.0111705933152951 y[8,17]
   - 0.0813488021005508 y[8,18] - 0.0196917493991314 y[8,19]
   - 0.0660850950216239 y[9,0] - 0.5775345445527403 y[9,1]
   - 0.0575005855755271 y[9,2] - 0.2248804488489878 y[9,3]
   - 0.8122883562717235 y[9,4] - 0.2788402501811077 y[9,5]
   - 0.1749917090522586 y[9,6] - 0.1372980837996736 y[9,7]
   - 0.4486342185593216 y[9,8] - 0.0103174532883163 y[9,9]
   - 0.00621466356102872 y[9,10] - 0.0899801019535263 y[9,11]
   - 0.0126749164558735 y[9,12] - 0.2379261132048769 y[9,13]
   - 0.1635597307780245 y[9,14] - 0.1241798512257696 y[9,15]
   - 0.0298038766507757 y[9,16] - 0.00306149131005158 y[9,17]
   - 0.0067014567935545 y[9,18] - 0.2686781073118388 y[9,19]
   - 0.1251110599615745 y[10,0] - 0.6471060276508349 y[10,1]
   - 0.0376297231120774 y[10,2] - 0.1697796318156049 y[10,3]
   - 0.021457871284738 y[10,4] - 0.0305422538164985 y[10,5]
   - 0.2219582181689657 y[10,6] - 0.1055952770428524 y[10,7]
   - 0.3297089874555138 y[10,8] - 0.0296570367051227 y[10,9]
   - 0.015455293437277 y[10,10] - 0.0930044991328327 y[10,11]
   - 0.0451384346488608 y[10,12] - 0.0663416998224677 y[10,13]
   - 0.00456719394465204 y[10,14] - 0.1920147966587022 y[10,15]
   - 0.0419399216938865 y[10,16] - 0.00461545690345547 y[10,17]
   - 0.0679413883534352 y[10,18] - 0.5139870642621472 y[10,19]
   - 0.2523849405739179 y[11,0] - 0.8109467644108522 y[11,1]
   - 0.0272488707107441 y[11,2] - 0.7543948958856708 y[11,3]
   - 0.1614083244312188 y[11,4] - 0.4327221426838962 y[11,5]
   - 0.2246030261012405 y[11,6] - 0.0501581466627473 y[11,7]
   - 0.5821257918096 y[11,8] - 0.024172757236424 y[11,9]
   - 0.00396302964007139 y[11,10] - 0.0914672634528172 y[11,11]
   - 0.0352760337338688 y[11,12] - 0.00646549054773954 y[11,13]
   - 0.0458842717914768 y[11,14] - 0.1075266207899428 y[11,15]
   - 0.0490369332865104 y[11,16] - 0.00557969713752953 y[11,17]
   - 0.032061756011987 y[11,18] - 0.3629145348754664 y[11,19]
   - 0.3466302691991548 y[12,0] - 0.1092213450051761 y[12,1]
   - 0.0515386836571007 y[12,2] - 0.1248441834517516 y[12,3]
   - 0.6233012708082756 y[12,4] - 0.1798754239454531 y[12,5]
   - 0.1847236411547412 y[12,6] - 0.0426573058940539 y[12,7]
   - 0.0890038359287612 y[12,8] - 0.0161422620995189 y[12,9]
   - 0.00554971530499943 y[12,10] - 0.4032531954251032 y[12,11]
   - 0.0520988079423769 y[12,12] - 0.1886190522490441 y[12,13]
   - 0.1998674848585353 y[12,14] - 0.0211218260128322 y[12,15]
   - 0.0723677118210053 y[12,16] - 0.00703488424429638 y[12,17]
   - 0.1110885465687195 y[12,18] - 0.1806874781866631 y[12,19]
   - 0.0966348360080143 y[13,0] - 0.093202299754781 y[13,1]
   - 0.00163663640531604 y[13,2] - 0.8786854885774188 y[13,3]
   - 0.5824847536842048 y[13,4] - 0.3565869284633724 y[13,5]
   - 0.0920414739704803 y[13,6] - 0.1364835235294236 y[13,7]
   - 0.0392982538246791 y[13,8] - 0.0160619343447696 y[13,9]
   - 0.0152548521473132 y[13,10] - 0.3758416999390227 y[13,11]
   - 0.0230198575025553 y[13,12] - 0.2422589350031334 y[13,13]
   - 0.051243343797548 y[13,14] - 0.2403591658709985 y[13,15]
   - 0.1233724727511988 y[13,16] - 0.00961938048175539 y[13,17]
   - 0.0728068368716352 y[13,18] - 0.5407298484870698 y[13,19]
   - 0.1175771730869299 y[14,0] - 0.7889159597267467 y[14,1]
   - 0.0615497435507141 y[14,2] - 0.0125128219379321 y[14,3]
   - 0.3019155612634233 y[14,4] - 0.067280008488167 y[14,5]
   - 0.3207645273996161 y[14,6] - 0.1113378805849771 y[14,7]
   - 0.3056294394052675 y[14,8] - 0.0211502922397014 y[14,9]
   - 0.00575215511736761 y[14,10] - 0.0587022509076314 y[14,11]
   - 0.0559649033853944 y[14,12] - 0.047830470541238 y[14,13]
   - 0.1130837742138025 y[14,14] - 0.0567950963384778 y[14,15]
   - 0.0128230315385033 y[14,16] - 0.0103775292841541 y[14,17]
   - 0.1123569233624261 y[14,18] - 0.5942572686676467 y[14,19]
   - 0.3637640070682566 y[15,0] - 0.7193155428629033 y[15,1]
   - 0.033186231072888 y[15,2] - 0.0766652683229382 y[15,3]
   - 0.3540915277106805 y[15,4] - 0.1054720146521245 y[15,5]
   - 0.0432838270988242 y[15,6] - 0.0124348629048085 y[15,7]
   - 0.4458521280259276 y[15,8] - 3.7795852562614446e-04 y[15,9]
   - 0.0120257328226195 y[15,10] - 0.0630100929831462 y[15,11]
   - 0.00541339213263462 y[15,12] - 0.0225746769959227 y[15,13]
   - 0.1486307082307203 y[15,14] - 0.0621248167630873 y[15,15]
   - 0.0551138970409015 y[15,16] - 0.00670861500857081 y[15,17]
   - 0.0993801474615429 y[15,18] - 0.4496625242789568 y[15,19]
   - 0.1084716403093719 y[16,0] - 0.1221858369041802 y[16,1]
   - 0.00551610906480795 y[16,2] - 0.2851016516700313 y[16,3]
   - 0.2279087244120107 y[16,4] - 0.2071618931448751 y[16,5]
   - 0.2232286148192216 y[16,6] - 0.1619027386495717 y[16,7]
   - 0.174212324845773 y[16,8] - 0.0125659288569289 y[16,9]
   - 0.00282705358347102 y[16,10] - 0.3381249426722168 y[16,11]
   - 0.00386988016043695 y[16,12] - 0.1756021738849942 y[16,13]
   - 0.1722169865421156 y[16,14] - 0.1968327485936577 y[16,15]
   - 0.0339986841527356 y[16,16] - 0.00449929825022789 y[16,17]
   - 0.0678585308696398 y[16,18] - 0.1687349610122459 y[16,19]
   - 0.148808209085791 y[17,0] - 0.1831208513192792 y[17,1]
   - 0.0458085117721957 y[17,2] - 0.0421720767875447 y[17,3]
   - 0.6954133484125505 y[17,4] - 0.0349507244209381 y[17,5]
   - 0.169503900615626 y[17,6] - 0.0714082494726674 y[17,7]
   - 0.3548797585314596 y[17,8] - 0.0317328657960451 y[17,9]
   - 0.010074810839935 y[17,10] - 0.0151632611890732 y[17,11]
   - 0.0292992475059718 y[17,12] - 0.1284941497952216 y[17,13]
   - 0.1185815055165855 y[17,14] - 0.1725225831535968 y[17,15]
   - 0.0363804207726899 y[17,16] - 0.0015509944886704 y[17,17]
   - 0.0453478745095236 y[17,18] - 0.5915180596343156 y[17,19]
   - 0.0750880482088781 y[18,0] - 0.8400645306941741 y[18,1]
   - 0.054171191770865 y[18,2] - 0.4319190675458487 y[18,3]
   - 0.766924889662066 y[18,4] - 0.2082806745081202 y[18,5]
   - 0.2365862054290281 y[18,6] - 0.092870801060084 y[18,7]
   - 0.5555033725259511 y[18,8] - 0.0228222956507024 y[18,9]
   - 0.0109183468670559 y[18,10] - 0.1405251063630974 y[18,11]
   - 0.0515170053081593 y[18,12] - 0.1602498508942057 y[18,13]
   - 0.0530831033622738 y[18,14] - 0.0406470161039031 y[18,15]
   - 0.104371268830729 y[18,16] - 0.0115447430301178 y[18,17]
   - 0.0529078404580964 y[18,18] - 0.3655120399373173 y[18,19]
   - 0.344169360037057 y[19,0] - 0.4248938309912471 y[19,1]
   - 0.0948209095891022 y[19,2] - 0.5442584563833799 y[19,3]
   - 0.7136475976995766 y[19,4] - 0.4127626415687013 y[19,5]
   - 0.2664323506947102 y[19,6] - 0.0371027804899153 y[19,7]
   - 0.3864358947618122 y[19,8] - 0.0131780503336918 y[19,9]
   - 9.7870237092717908e-04 y[19,10] - 0.1818232158116596 y[19,11]
   - 0.017609678305511 y[19,12] - 0.21390755048427 y[19,13]
   - 0.00736568169232681 y[19,14] - 0.2428059801082026 y[19,15]
   - 0.0465729466031886 y[19,16] - 0.00429340364201414 y[19,17]
   - 0.00188568565575617 y[19,18] - 0.1145625365822248 y[19,19] + g = 0
 R1: y[0,0] + y[1,0] + y[2,0] + y[3,0] + y[4,0] + y[5,0] + y[6,0] + y[7,0]
   + y[8,0] + y[9,0] + y[10,0] + y[11,0] + y[12,0] + y[13,0] + y[14,0]
   + y[15,0] + y[16,0] + y[17,0] + y[18,0] + y[19,0] <= 1
 R2: y[0,1] + y[1,1] + y[2,1] + y[3,1] + y[4,1] + y[5,1] + y[6,1] + y[7,1]
   + y[8,1] + y[9,1] + y[10,1] + y[11,1] + y[12,1] + y[13,1] + y[14,1]
   + y[15,1] + y[16,1] + y[17,1] + y[18,1] + y[19,1] <= 1
 R3: y[0,2] + y[1,2] + y[2,2] + y[3,2] + y[4,2] + y[5,2] + y[6,2] + y[7,2]
   + y[8,2] + y[9,2] + y[10,2] + y[11,2] + y[12,2] + y[13,2] + y[14,2]
   + y[15,2] + y[16,2] + y[17,2] + y[18,2] + y[19,2] <= 1
 R4: y[0,3] + y[1,3] + y[2,3] + y[3,3] + y[4,3] + y[5,3] + y[6,3] + y[7,3]
   + y[8,3] + y[9,3] + y[10,3] + y[11,3] + y[12,3] + y[13,3] + y[14,3]
   + y[15,3] + y[16,3] + y[17,3] + y[18,3] + y[19,3] <= 1
 R5: y[0,4] + y[1,4] + y[2,4] + y[3,4] + y[4,4] + y[5,4] + y[6,4] + y[7,4]
   + y[8,4] + y[9,4] + y[10,4] + y[11,4] + y[12,4] + y[13,4] + y[14,4]
   + y[15,4] + y[16,4] + y[17,4] + y[18,4] + y[19,4] <= 1
 R6: y[0,5] + y[1,5] + y[2,5] + y[3,5] + y[4,5] + y[5,5] + y[6,5] + y[7,5]
   + y[8,5] + y[9,5] + y[10,5] + y[11,5] + y[12,5] + y[13,5] + y[14,5]
   + y[15,5] + y[16,5] + y[17,5] + y[18,5] + y[19,5] <= 1
 R7: y[0,6] + y[1,6] + y[2,6] + y[3,6] + y[4,6] + y[5,6] + y[6,6] + y[7,6]
   + y[8,6] + y[9,6] + y[10,6] + y[11,6] + y[12,6] + y[13,6] + y[14,6]
   + y[15,6] + y[16,6] + y[17,6] + y[18,6] + y[19,6] <= 1
 R8: y[0,7] + y[1,7] + y[2,7] + y[3,7] + y[4,7] + y[5,7] + y[6,7] + y[7,7]
   + y[8,7] + y[9,7] + y[10,7] + y[11,7] + y[12,7] + y[13,7] + y[14,7]
   + y[15,7] + y[16,7] + y[17,7] + y[18,7] + y[19,7] <= 1
 R9: y[0,8] + y[1,8] + y[2,8] + y[3,8] + y[4,8] + y[5,8] + y[6,8] + y[7,8]
   + y[8,8] + y[9,8] + y[10,8] + y[11,8] + y[12,8] + y[13,8] + y[14,8]
   + y[15,8] + y[16,8] + y[17,8] + y[18,8] + y[19,8] <= 1
 R10: y[0,9] + y[1,9] + y[2,9] + y[3,9] + y[4,9] + y[5,9] + y[6,9] + y[7,9]
   + y[8,9] + y[9,9] + y[10,9] + y[11,9] + y[12,9] + y[13,9] + y[14,9]
   + y[15,9] + y[16,9] + y[17,9] + y[18,9] + y[19,9] <= 1
 R11: y[0,10] + y[1,10] + y[2,10] + y[3,10] + y[4,10] + y[5,10] + y[6,10]
   + y[7,10] + y[8,10] + y[9,10] + y[10,10] + y[11,10] + y[12,10]
   + y[13,10] + y[14,10] + y[15,10] + y[16,10] + y[17,10] + y[18,10]
   + y[19,10] <= 1
 R12: y[0,11] + y[1,11] + y[2,11] + y[3,11] + y[4,11] + y[5,11] + y[6,11]
   + y[7,11] + y[8,11] + y[9,11] + y[10,11] + y[11,11] + y[12,11]
   + y[13,11] + y[14,11] + y[15,11] + y[16,11] + y[17,11] + y[18,11]
   + y[19,11] <= 1
 R13: y[0,12] + y[1,12] + y[2,12] + y[3,12] + y[4,12] + y[5,12] + y[6,12]
   + y[7,12] + y[8,12] + y[9,12] + y[10,12] + y[11,12] + y[12,12]
   + y[13,12] + y[14,12] + y[15,12] + y[16,12] + y[17,12] + y[18,12]
   + y[19,12] <= 1
 R14: y[0,13] + y[1,13] + y[2,13] + y[3,13] + y[4,13] + y[5,13] + y[6,13]
   + y[7,13] + y[8,13] + y[9,13] + y[10,13] + y[11,13] + y[12,13]
   + y[13,13] + y[14,13] + y[15,13] + y[16,13] + y[17,13] + y[18,13]
   + y[19,13] <= 1
 R15: y[0,14] + y[1,14] + y[2,14] + y[3,14] + y[4,14] + y[5,14] + y[6,14]
   + y[7,14] + y[8,14] + y[9,14] + y[10,14] + y[11,14] + y[12,14]
   + y[13,14] + y[14,14] + y[15,14] + y[16,14] + y[17,14] + y[18,14]
   + y[19,14] <= 1
 R16: y[0,15] + y[1,15] + y[2,15] + y[3,15] + y[4,15] + y[5,15] + y[6,15]
   + y[7,15] + y[8,15] + y[9,15] + y[10,15] + y[11,15] + y[12,15]
   + y[13,15] + y[14,15] + y[15,15] + y[16,15] + y[17,15] + y[18,15]
   + y[19,15] <= 1
 R17: y[0,16] + y[1,16] + y[2,16] + y[3,16] + y[4,16] + y[5,16] + y[6,16]
   + y[7,16] + y[8,16] + y[9,16] + y[10,16] + y[11,16] + y[12,16]
   + y[13,16] + y[14,16] + y[15,16] + y[16,16] + y[17,16] + y[18,16]
   + y[19,16] <= 1
 R18: y[0,17] + y[1,17] + y[2,17] + y[3,17] + y[4,17] + y[5,17] + y[6,17]
   + y[7,17] + y[8,17] + y[9,17] + y[10,17] + y[11,17] + y[12,17]
   + y[13,17] + y[14,17] + y[15,17] + y[16,17] + y[17,17] + y[18,17]
   + y[19,17] <= 1
 R19: y[0,18] + y[1,18] + y[2,18] + y[3,18] + y[4,18] + y[5,18] + y[6,18]
   + y[7,18] + y[8,18] + y[9,18] + y[10,18] + y[11,18] + y[12,18]
   + y[13,18] + y[14,18] + y[15,18] + y[16,18] + y[17,18] + y[18,18]
   + y[19,18] <= 1
 R20: y[0,19] + y[1,19] + y[2,19] + y[3,19] + y[4,19] + y[5,19] + y[6,19]
   + y[7,19] + y[8,19] + y[9,19] + y[10,19] + y[11,19] + y[12,19]
   + y[13,19] + y[14,19] + y[15,19] + y[16,19] + y[17,19] + y[18,19]
   + y[19,19] <= 1
 R21: - 4.871281064090251 x[0] + 0.4012595008036087 y[0,0]
   + 0.9292914173027139 y[0,1] + 0.0996149302212713 y[0,2]
   + 0.9453015334790795 y[0,3] + 0.8694885305466322 y[0,4]
   + 0.4541623969075518 y[0,5] + 0.3267008817682601 y[0,6]
   + 0.2327441292790569 y[0,7] + 0.6144647064768743 y[0,8]
   + 0.0330745914755056 y[0,9] + 0.0156060644468282 y[0,10]
   + 0.4287957224982378 y[0,11] + 0.0680740739747202 y[0,12]
   + 0.2519409882460929 y[0,13] + 0.2211609153460838 y[0,14]
   + 0.2531911937228519 y[0,15] + 0.1310552312152578 y[0,16]
   + 0.0120362228976543 y[0,17] + 0.1154842971387481 y[0,18]
   + 0.6184802595127479 y[0,19] <= 0
 R22: - 4.95172500780447 x[1] + 0.4012595008036087 y[1,0]
   + 0.9292914173027139 y[1,1] + 0.0996149302212713 y[1,2]
   + 0.9453015334790795 y[1,3] + 0.8694885305466322 y[1,4]
   + 0.4541623969075518 y[1,5] + 0.3267008817682601 y[1,6]
   + 0.2327441292790569 y[1,7] + 0.6144647064768743 y[1,8]
   + 0.0330745914755056 y[1,9] + 0.0156060644468282 y[1,10]
   + 0.4287957224982378 y[1,11] + 0.0680740739747202 y[1,12]
   + 0.2519409882460929 y[1,13] + 0.2211609153460838 y[1,14]
   + 0.2531911937228519 y[1,15] + 0.1310552312152578 y[1,16]
   + 0.0120362228976543 y[1,17] + 0.1154842971387481 y[1,18]
   + 0.6184802595127479 y[1,19] <= 0
 R23: - 2.045270476865308 x[2] + 0.4012595008036087 y[2,0]
   + 0.9292914173027139 y[2,1] + 0.0996149302212713 y[2,2]
   + 0.9453015334790795 y[2,3] + 0.8694885305466322 y[2,4]
   + 0.4541623969075518 y[2,5] + 0.3267008817682601 y[2,6]
   + 0.2327441292790569 y[2,7] + 0.6144647064768743 y[2,8]
   + 0.0330745914755056 y[2,9] + 0.0156060644468282 y[2,10]
   + 0.4287957224982378 y[2,11] + 0.0680740739747202 y[2,12]
   + 0.2519409882460929 y[2,13] + 0.2211609153460838 y[2,14]
   + 0.2531911937228519 y[2,15] + 0.1310552312152578 y[2,16]
   + 0.0120362228976543 y[2,17] + 0.1154842971387481 y[2,18]
   + 0.6184802595127479 y[2,19] <= 0
 R24: - 0.8147721302330269 x[3] + 0.4012595008036087 y[3,0]
   + 0.9292914173027139 y[3,1] + 0.0996149302212713 y[3,2]
   + 0.9453015334790795 y[3,3] + 0.8694885305466322 y[3,4]
   + 0.4541623969075518 y[3,5] + 0.3267008817682601 y[3,6]
   + 0.2327441292790569 y[3,7] + 0.6144647064768743 y[3,8]
   + 0.0330745914755056 y[3,9] + 0.0156060644468282 y[3,10]
   + 0.4287957224982378 y[3,11] + 0.0680740739747202 y[3,12]
   + 0.2519409882460929 y[3,13] + 0.2211609153460838 y[3,14]
   + 0.2531911937228519 y[3,15] + 0.1310552312152578 y[3,16]
   + 0.0120362228976543 y[3,17] + 0.1154842971387481 y[3,18]
   + 0.6184802595127479 y[3,19] <= 0
 R25: - 3.193808786832646 x[4] + 0.4012595008036087 y[4,0]
   + 0.9292914173027139 y[4,1] + 0.0996149302212713 y[4,2]
   + 0.9453015334790795 y[4,3] + 0.8694885305466322 y[4,4]
   + 0.4541623969075518 y[4,5] + 0.3267008817682601 y[4,6]
   + 0.2327441292790569 y[4,7] + 0.6144647064768743 y[4,8]
   + 0.0330745914755056 y[4,9] + 0.0156060644468282 y[4,10]
   + 0.4287957224982378 y[4,11] + 0.0680740739747202 y[4,12]
   + 0.2519409882460929 y[4,13] + 0.2211609153460838 y[4,14]
   + 0.2531911937228519 y[4,15] + 0.1310552312152578 y[4,16]
   + 0.0120362228976543 y[4,17] + 0.1154842971387481 y[4,18]
   + 0.6184802595127479 y[4,19] <= 0
 R26: - 2.451526732743686 x[5] + 0.4012595008036087 y[5,0]
   + 0.9292914173027139 y[5,1] + 0.0996149302212713 y[5,2]
   + 0.9453015334790795 y[5,3] + 0.8694885305466322 y[5,4]
   + 0.4541623969075518 y[5,5] + 0.3267008817682601 y[5,6]
   + 0.2327441292790569 y[5,7] + 0.6144647064768743 y[5,8]
   + 0.0330745914755056 y[5,9] + 0.0156060644468282 y[5,10]
   + 0.4287957224982378 y[5,11] + 0.0680740739747202 y[5,12]
   + 0.2519409882460929 y[5,13] + 0.2211609153460838 y[5,14]
   + 0.2531911937228519 y[5,15] + 0.1310552312152578 y[5,16]
   + 0.0120362228976543 y[5,17] + 0.1154842971387481 y[5,18]
   + 0.6184802595127479 y[5,19] <= 0
 R27: - 4.947048886422158 x[6] + 0.4012595008036087 y[6,0]
   + 0.9292914173027139 y[6,1] + 0.0996149302212713 y[6,2]
   + 0.9453015334790795 y[6,3] + 0.8694885305466322 y[6,4]
   + 0.4541623969075518 y[6,5] + 0.3267008817682601 y[6,6]
   + 0.2327441292790569 y[6,7] + 0.6144647064768743 y[6,8]
   + 0.0330745914755056 y[6,9] + 0.0156060644468282 y[6,10]
   + 0.4287957224982378 y[6,11] + 0.0680740739747202 y[6,12]
   + 0.2519409882460929 y[6,13] + 0.2211609153460838 y[6,14]
   + 0.2531911937228519 y[6,15] + 0.1310552312152578 y[6,16]
   + 0.0120362228976543 y[6,17] + 0.1154842971387481 y[6,18]
   + 0.6184802595127479 y[6,19] <= 0
 R28: - 0.326521035758901 x[7] + 0.4012595008036087 y[7,0]
   + 0.9292914173027139 y[7,1] + 0.0996149302212713 y[7,2]
   + 0.9453015334790795 y[7,3] + 0.8694885305466322 y[7,4]
   + 0.4541623969075518 y[7,5] + 0.3267008817682601 y[7,6]
   + 0.2327441292790569 y[7,7] + 0.6144647064768743 y[7,8]
   + 0.0330745914755056 y[7,9] + 0.0156060644468282 y[7,10]
   + 0.4287957224982378 y[7,11] + 0.0680740739747202 y[7,12]
   + 0.2519409882460929 y[7,13] + 0.2211609153460838 y[7,14]
   + 0.2531911937228519 y[7,15] + 0.1310552312152578 y[7,16]
   + 0.0120362228976543 y[7,17] + 0.1154842971387481 y[7,18]
   + 0.6184802595127479 y[7,19] <= 0
 R29: - 3.916172191569065 x[8] + 0.4012595008036087 y[8,0]
   + 0.9292914173027139 y[8,1] + 0.0996149302212713 y[8,2]
   + 0.9453015334790795 y[8,3] + 0.8694885305466322 y[8,4]
   + 0.4541623969075518 y[8,5] + 0.3267008817682601 y[8,6]
   + 0.2327441292790569 y[8,7] + 0.6144647064768743 y[8,8]
   + 0.0330745914755056 y[8,9] + 0.0156060644468282 y[8,10]
   + 0.4287957224982378 y[8,11] + 0.0680740739747202 y[8,12]
   + 0.2519409882460929 y[8,13] + 0.2211609153460838 y[8,14]
   + 0.2531911937228519 y[8,15] + 0.1310552312152578 y[8,16]
   + 0.0120362228976543 y[8,17] + 0.1154842971387481 y[8,18]
   + 0.6184802595127479 y[8,19] <= 0
 R30: - 1.44199248665747 x[9] + 0.4012595008036087 y[9,0]
   + 0.9292914173027139 y[9,1] + 0.0996149302212713 y[9,2]
   + 0.9453015334790795 y[9,3] + 0.8694885305466322 y[9,4]
   + 0.4541623969075518 y[9,5] + 0.3267008817682601 y[9,6]
   + 0.2327441292790569 y[9,7] + 0.6144647064768743 y[9,8]
   + 0.0330745914755056 y[9,9] + 0.0156060644468282 y[9,10]
   + 0.4287957224982378 y[9,11] + 0.0680740739747202 y[9,12]
   + 0.2519409882460929 y[9,13] + 0.2211609153460838 y[9,14]
   + 0.2531911937228519 y[9,15] + 0.1310552312152578 y[9,16]
   + 0.0120362228976543 y[9,17] + 0.1154842971387481 y[9,18]
   + 0.6184802595127479 y[9,19] <= 0
 R31: - 1.20709310038287 x[10] + 0.4012595008036087 y[10,0]
   + 0.9292914173027139 y[10,1] + 0.0996149302212713 y[10,2]
   + 0.9453015334790795 y[10,3] + 0.8694885305466322 y[10,4]
   + 0.4541623969075518 y[10,5] + 0.3267008817682601 y[10,6]
   + 0.2327441292790569 y[10,7] + 0.6144647064768743 y[10,8]
   + 0.0330745914755056 y[10,9] + 0.0156060644468282 y[10,10]
   + 0.4287957224982378 y[10,11] + 0.0680740739747202 y[10,12]
   + 0.2519409882460929 y[10,13] + 0.2211609153460838 y[10,14]
   + 0.2531911937228519 y[10,15] + 0.1310552312152578 y[10,16]
   + 0.0120362228976543 y[10,17] + 0.1154842971387481 y[10,18]
   + 0.6184802595127479 y[10,19] <= 0
 R32: - 3.31252285766338 x[11] + 0.4012595008036087 y[11,0]
   + 0.9292914173027139 y[11,1] + 0.0996149302212713 y[11,2]
   + 0.9453015334790795 y[11,3] + 0.8694885305466322 y[11,4]
   + 0.4541623969075518 y[11,5] + 0.3267008817682601 y[11,6]
   + 0.2327441292790569 y[11,7] + 0.6144647064768743 y[11,8]
   + 0.0330745914755056 y[11,9] + 0.0156060644468282 y[11,10]
   + 0.4287957224982378 y[11,11] + 0.0680740739747202 y[11,12]
   + 0.2519409882460929 y[11,13] + 0.2211609153460838 y[11,14]
   + 0.2531911937228519 y[11,15] + 0.1310552312152578 y[11,16]
   + 0.0120362228976543 y[11,17] + 0.1154842971387481 y[11,18]
   + 0.6184802595127479 y[11,19] <= 0
 R33: - 1.230315924954822 x[12] + 0.4012595008036087 y[12,0]
   + 0.9292914173027139 y[12,1] + 0.0996149302212713 y[12,2]
   + 0.9453015334790795 y[12,3] + 0.8694885305466322 y[12,4]
   + 0.4541623969075518 y[12,5] + 0.3267008817682601 y[12,6]
   + 0.2327441292790569 y[12,7] + 0.6144647064768743 y[12,8]
   + 0.0330745914755056 y[12,9] + 0.0156060644468282 y[12,10]
   + 0.4287957224982378 y[12,11] + 0.0680740739747202 y[12,12]
   + 0.2519409882460929 y[12,13] + 0.2211609153460838 y[12,14]
   + 0.2531911937228519 y[12,15] + 0.1310552312152578 y[12,16]
   + 0.0120362228976543 y[12,17] + 0.1154842971387481 y[12,18]
   + 0.6184802595127479 y[12,19] <= 0
 R34: - 3.329295587795938 x[13] + 0.4012595008036087 y[13,0]
   + 0.9292914173027139 y[13,1] + 0.0996149302212713 y[13,2]
   + 0.9453015334790795 y[13,3] + 0.8694885305466322 y[13,4]
   + 0.4541623969075518 y[13,5] + 0.3267008817682601 y[13,6]
   + 0.2327441292790569 y[13,7] + 0.6144647064768743 y[13,8]
   + 0.0330745914755056 y[13,9] + 0.0156060644468282 y[13,10]
   + 0.4287957224982378 y[13,11] + 0.0680740739747202 y[13,12]
   + 0.2519409882460929 y[13,13] + 0.2211609153460838 y[13,14]
   + 0.2531911937228519 y[13,15] + 0.1310552312152578 y[13,16]
   + 0.0120362228976543 y[13,17] + 0.1154842971387481 y[13,18]
   + 0.6184802595127479 y[13,19] <= 0
 R35: - 2.586542586011444 x[14] + 0.4012595008036087 y[14,0]
   + 0.9292914173027139 y[14,1] + 0.0996149302212713 y[14,2]
   + 0.9453015334790795 y[14,3] + 0.8694885305466322 y[14,4]
   + 0.4541623969075518 y[14,5] + 0.3267008817682601 y[14,6]
   + 0.2327441292790569 y[14,7] + 0.6144647064768743 y[14,8]
   + 0.0330745914755056 y[14,9] + 0.0156060644468282 y[14,10]
   + 0.4287957224982378 y[14,11] + 0.0680740739747202 y[14,12]
   + 0.2519409882460929 y[14,13] + 0.2211609153460838 y[14,14]
   + 0.2531911937228519 y[14,15] + 0.1310552312152578 y[14,16]
   + 0.0120362228976543 y[14,17] + 0.1154842971387481 y[14,18]
   + 0.6184802595127479 y[14,19] <= 0
 R36: - 2.120444942179247 x[15] + 0.4012595008036087 y[15,0]
   + 0.9292914173027139 y[15,1] + 0.0996149302212713 y[15,2]
   + 0.9453015334790795 y[15,3] + 0.8694885305466322 y[15,4]
   + 0.4541623969075518 y[15,5] + 0.3267008817682601 y[15,6]
   + 0.2327441292790569 y[15,7] + 0.6144647064768743 y[15,8]
   + 0.0330745914755056 y[15,9] + 0.0156060644468282 y[15,10]
   + 0.4287957224982378 y[15,11] + 0.0680740739747202 y[15,12]
   + 0.2519409882460929 y[15,13] + 0.2211609153460838 y[15,14]
   + 0.2531911937228519 y[15,15] + 0.1310552312152578 y[15,16]
   + 0.0120362228976543 y[15,17] + 0.1154842971387481 y[15,18]
   + 0.6184802595127479 y[15,19] <= 0
 R37: - 2.773439043307095 x[16] + 0.4012595008036087 y[16,0]
   + 0.9292914173027139 y[16,1] + 0.0996149302212713 y[16,2]
   + 0.9453015334790795 y[16,3] + 0.8694885305466322 y[16,4]
   + 0.4541623969075518 y[16,5] + 0.3267008817682601 y[16,6]
   + 0.2327441292790569 y[16,7] + 0.6144647064768743 y[16,8]
   + 0.0330745914755056 y[16,9] + 0.0156060644468282 y[16,10]
   + 0.4287957224982378 y[16,11] + 0.0680740739747202 y[16,12]
   + 0.2519409882460929 y[16,13] + 0.2211609153460838 y[16,14]
   + 0.2531911937228519 y[16,15] + 0.1310552312152578 y[16,16]
   + 0.0120362228976543 y[16,17] + 0.1154842971387481 y[16,18]
   + 0.6184802595127479 y[16,19] <= 0
 R38: - 1.435257599598149 x[17] + 0.4012595008036087 y[17,0]
   + 0.9292914173027139 y[17,1] + 0.0996149302212713 y[17,2]
   + 0.9453015334790795 y[17,3] + 0.8694885305466322 y[17,4]
   + 0.4541623969075518 y[17,5] + 0.3267008817682601 y[17,6]
   + 0.2327441292790569 y[17,7] + 0.6144647064768743 y[17,8]
   + 0.0330745914755056 y[17,9] + 0.0156060644468282 y[17,10]
   + 0.4287957224982378 y[17,11] + 0.0680740739747202 y[17,12]
   + 0.2519409882460929 y[17,13] + 0.2211609153460838 y[17,14]
   + 0.2531911937228519 y[17,15] + 0.1310552312152578 y[17,16]
   + 0.0120362228976543 y[17,17] + 0.1154842971387481 y[17,18]
   + 0.6184802595127479 y[17,19] <= 0
 R39: - 3.532873531364895 x[18] + 0.4012595008036087 y[18,0]
   + 0.9292914173027139 y[18,1] + 0.0996149302212713 y[18,2]
   + 0.9453015334790795 y[18,3] + 0.8694885305466322 y[18,4]
   + 0.4541623969075518 y[18,5] + 0.3267008817682601 y[18,6]
   + 0.2327441292790569 y[18,7] + 0.6144647064768743 y[18,8]
   + 0.0330745914755056 y[18,9] + 0.0156060644468282 y[18,10]
   + 0.4287957224982378 y[18,11] + 0.0680740739747202 y[18,12]
   + 0.2519409882460929 y[18,13] + 0.2211609153460838 y[18,14]
   + 0.2531911937228519 y[18,15] + 0.1310552312152578 y[18,16]
   + 0.0120362228976543 y[18,17] + 0.1154842971387481 y[18,18]
   + 0.6184802595127479 y[18,19] <= 0
 R40: - 2.07428434666782 x[19] + 0.4012595008036087 y[19,0]
   + 0.9292914173027139 y[19,1] + 0.0996149302212713 y[19,2]
   + 0.9453015334790795 y[19,3] + 0.8694885305466322 y[19,4]
   + 0.4541623969075518 y[19,5] + 0.3267008817682601 y[19,6]
   + 0.2327441292790569 y[19,7] + 0.6144647064768743 y[19,8]
   + 0.0330745914755056 y[19,9] + 0.0156060644468282 y[19,10]
   + 0.4287957224982378 y[19,11] + 0.0680740739747202 y[19,12]
   + 0.2519409882460929 y[19,13] + 0.2211609153460838 y[19,14]
   + 0.2531911937228519 y[19,15] + 0.1310552312152578 y[19,16]
   + 0.0120362228976543 y[19,17] + 0.1154842971387481 y[19,18]
   + 0.6184802595127479 y[19,19] <= 0
 R41: x[0] = 0
 R42: x[1] = 0
 R43: x[2] = 0
 R44: x[3] = 0
 R45: x[4] = 0
 R46: x[5] = 0
 R47: x[6] = 0
 R48: x[7] = 0
 R49: x[8] = 0
 R50: x[9] = 0
 R51: x[10] = 0
 R52: x[11] = 0
 R53: x[12] = 0
 R54: x[13] = 0
 R55: x[14] = 0
 R56: x[15] = 0
 R57: x[16] = 0
 R58: x[17] = 0
 R59: x[18] = 0
 R60: x[19] = 0
Bounds
 x[0] <= 1
 x[1] <= 1
 x[2] <= 1
 x[3] <= 1
 x[4] <= 1
 x[5] <= 1
 x[6] <= 1
 x[7] <= 1
 x[8] <= 1
 x[9] <= 1
 x[10] <= 1
 x[11] <= 1
 x[12] <= 1
 x[13] <= 1
 x[14] <= 1
 x[15] <= 1
 x[16] <= 1
 x[17] <= 1
 x[18] <= 1
 x[19] <= 1
 y[0,0] <= 1
 y[0,1] <= 1
 y[0,2] <= 1
 y[0,3] <= 1
 y[0,4] <= 1
 y[0,5] <= 1
 y[0,6] <= 1
 y[0,7] <= 1
 y[0,8] <= 1
 y[0,9] <= 1
 y[0,10] <= 1
 y[0,11] <= 1
 y[0,12] <= 1
 y[0,13] <= 1
 y[0,14] <= 1
 y[0,15] <= 1
 y[0,16] <= 1
 y[0,17] <= 1
 y[0,18] <= 1
 y[0,19] <= 1
 y[1,0] <= 1
 y[1,1] <= 1
 y[1,2] <= 1
 y[1,3] <= 1
 y[1,4] <= 1
 y[1,5] <= 1
 y[1,6] <= 1
 y[1,7] <= 1
 y[1,8] <= 1
 y[1,9] <= 1
 y[1,10] <= 1
 y[1,11] <= 1
 y[1,12] <= 1
 y[1,13] <= 1
 y[1,14] <= 1
 y[1,15] <= 1
 y[1,16] <= 1
 y[1,17] <= 1
 y[1,18] <= 1
 y[1,19] <= 1
 y[2,0] <= 1
 y[2,1] <= 1
 y[2,2] <= 1
 y[2,3] <= 1
 y[2,4] <= 1
 y[2,5] <= 1
 y[2,6] <= 1
 y[2,7] <= 1
 y[2,8] <= 1
 y[2,9] <= 1
 y[2,10] <= 1
 y[2,11] <= 1
 y[2,12] <= 1
 y[2,13] <= 1
 y[2,14] <= 1
 y[2,15] <= 1
 y[2,16] <= 1
 y[2,17] <= 1
 y[2,18] <= 1
 y[2,19] <= 1
 y[3,0] <= 1
 y[3,1] <= 1
 y[3,2] <= 1
 y[3,3] <= 1
 y[3,4] <= 1
 y[3,5] <= 1
 y[3,6] <= 1
 y[3,7] <= 1
 y[3,8] <= 1
 y[3,9] <= 1
 y[3,10] <= 1
 y[3,11] <= 1
 y[3,12] <= 1
 y[3,13] <= 1
 y[3,14] <= 1
 y[3,15] <= 1
 y[3,16] <= 1
 y[3,17] <= 1
 y[3,18] <= 1
 y[3,19] <= 1
 y[4,0] <= 1
 y[4,1] <= 1
 y[4,2] <= 1
 y[4,3] <= 1
 y[4,4] <= 1
 y[4,5] <= 1
 y[4,6] <= 1
 y[4,7] <= 1
 y[4,8] <= 1
 y[4,9] <= 1
 y[4,10] <= 1
 y[4,11] <= 1
 y[4,12] <= 1
 y[4,13] <= 1
 y[4,14] <= 1
 y[4,15] <= 1
 y[4,16] <= 1
 y[4,17] <= 1
 y[4,18] <= 1
 y[4,19] <= 1
 y[5,0] <= 1
 y[5,1] <= 1
 y[5,2] <= 1
 y[5,3] <= 1
 y[5,4] <= 1
 y[5,5] <= 1
 y[5,6] <= 1
 y[5,7] <= 1
 y[5,8] <= 1
 y[5,9] <= 1
 y[5,10] <= 1
 y[5,11] <= 1
 y[5,12] <= 1
 y[5,13] <= 1
 y[5,14] <= 1
 y[5,15] <= 1
 y[5,16] <= 1
 y[5,17] <= 1
 y[5,18] <= 1
 y[5,19] <= 1
 y[6,0] <= 1
 y[6,1] <= 1
 y[6,2] <= 1
 y[6,3] <= 1
 y[6,4] <= 1
 y[6,5] <= 1
 y[6,6] <= 1
 y[6,7] <= 1
 y[6,8] <= 1
 y[6,9] <= 1
 y[6,10] <= 1
 y[6,11] <= 1
 y[6,12] <= 1
 y[6,13] <= 1
 y[6,14] <= 1
 y[6,15] <= 1
 y[6,16] <= 1
 y[6,17] <= 1
 y[6,18] <= 1
 y[6,19] <= 1
 y[7,0] <= 1
 y[7,1] <= 1
 y[7,2] <= 1
 y[7,3] <= 1
 y[7,4] <= 1
 y[7,5] <= 1
 y[7,6] <= 1
 y[7,7] <= 1
 y[7,8] <= 1
 y[7,9] <= 1
 y[7,10] <= 1
 y[7,11] <= 1
 y[7,12] <= 1
 y[7,13] <= 1
 y[7,14] <= 1
 y[7,15] <= 1
 y[7,16] <= 1
 y[7,17] <= 1
 y[7,18] <= 1
 y[7,19] <= 1
 y[8,0] <= 1
 y[8,1] <= 1
 y[8,2] <= 1
 y[8,3] <= 1
 y[8,4] <= 1
 y[8,5] <= 1
 y[8,6] <= 1
 y[8,7] <= 1
 y[8,8] <= 1
 y[8,9] <= 1
 y[8,10] <= 1
 y[8,11] <= 1
 y[8,12] <= 1
 y[8,13] <= 1
 y[8,14] <= 1
 y[8,15] <= 1
 y[8,16] <= 1
 y[8,17] <= 1
 y[8,18] <= 1
 y[8,19] <= 1
 y[9,0] <= 1
 y[9,1] <= 1
 y[9,2] <= 1
 y[9,3] <= 1
 y[9,4] <= 1
 y[9,5] <= 1
 y[9,6] <= 1
 y[9,7] <= 1
 y[9,8] <= 1
 y[9,9] <= 1
 y[9,10] <= 1
 y[9,11] <= 1
 y[9,12] <= 1
 y[9,13] <= 1
 y[9,14] <= 1
 y[9,15] <= 1
 y[9,16] <= 1
 y[9,17] <= 1
 y[9,18] <= 1
 y[9,19] <= 1
 y[10,0] <= 1
 y[10,1] <= 1
 y[10,2] <= 1
 y[10,3] <= 1
 y[10,4] <= 1
 y[10,5] <= 1
 y[10,6] <= 1
 y[10,7] <= 1
 y[10,8] <= 1
 y[10,9] <= 1
 y[10,10] <= 1
 y[10,11] <= 1
 y[10,12] <= 1
 y[10,13] <= 1
 y[10,14] <= 1
 y[10,15] <= 1
 y[10,16] <= 1
 y[10,17] <= 1
 y[10,18] <= 1
 y[10,19] <= 1
 y[11,0] <= 1
 y[11,1] <= 1
 y[11,2] <= 1
 y[11,3] <= 1
 y[11,4] <= 1
 y[11,5] <= 1
 y[11,6] <= 1
 y[11,7] <= 1
 y[11,8] <= 1
 y[11,9] <= 1
 y[11,10] <= 1
 y[11,11] <= 1
 y[11,12] <= 1
 y[11,13] <= 1
 y[11,14] <= 1
 y[11,15] <= 1
 y[11,16] <= 1
 y[11,17] <= 1
 y[11,18] <= 1
 y[11,19] <= 1
 y[12,0] <= 1
 y[12,1] <= 1
 y[12,2] <= 1
 y[12,3] <= 1
 y[12,4] <= 1
 y[12,5] <= 1
 y[12,6] <= 1
 y[12,7] <= 1
 y[12,8] <= 1
 y[12,9] <= 1
 y[12,10] <= 1
 y[12,11] <= 1
 y[12,12] <= 1
 y[12,13] <= 1
 y[12,14] <= 1
 y[12,15] <= 1
 y[12,16] <= 1
 y[12,17] <= 1
 y[12,18] <= 1
 y[12,19] <= 1
 y[13,0] <= 1
 y[13,1] <= 1
 y[13,2] <= 1
 y[13,3] <= 1
 y[13,4] <= 1
 y[13,5] <= 1
 y[13,6] <= 1
 y[13,7] <= 1
 y[13,8] <= 1
 y[13,9] <= 1
 y[13,10] <= 1
 y[13,11] <= 1
 y[13,12] <= 1
 y[13,13] <= 1
 y[13,14] <= 1
 y[13,15] <= 1
 y[13,16] <= 1
 y[13,17] <= 1
 y[13,18] <= 1
 y[13,19] <= 1
 y[14,0] <= 1
 y[14,1] <= 1
 y[14,2] <= 1
 y[14,3] <= 1
 y[14,4] <= 1
 y[14,5] <= 1
 y[14,6] <= 1
 y[14,7] <= 1
 y[14,8] <= 1
 y[14,9] <= 1
 y[14,10] <= 1
 y[14,11] <= 1
 y[14,12] <= 1
 y[14,13] <= 1
 y[14,14] <= 1
 y[14,15] <= 1
 y[14,16] <= 1
 y[14,17] <= 1
 y[14,18] <= 1
 y[14,19] <= 1
 y[15,0] <= 1
 y[15,1] <= 1
 y[15,2] <= 1
 y[15,3] <= 1
 y[15,4] <= 1
 y[15,5] <= 1
 y[15,6] <= 1
 y[15,7] <= 1
 y[15,8] <= 1
 y[15,9] <= 1
 y[15,10] <= 1
 y[15,11] <= 1
 y[15,12] <= 1
 y[15,13] <= 1
 y[15,14] <= 1
 y[15,15] <= 1
 y[15,16] <= 1
 y[15,17] <= 1
 y[15,18] <= 1
 y[15,19] <= 1
 y[16,0] <= 1
 y[16,1] <= 1
 y[16,2] <= 1
 y[16,3] <= 1
 y[16,4] <= 1
 y[16,5] <= 1
 y[16,6] <= 1
 y[16,7] <= 1
 y[16,8] <= 1
 y[16,9] <= 1
 y[16,10] <= 1
 y[16,11] <= 1
 y[16,12] <= 1
 y[16,13] <= 1
 y[16,14] <= 1
 y[16,15] <= 1
 y[16,16] <= 1
 y[16,17] <= 1
 y[16,18] <= 1
 y[16,19] <= 1
 y[17,0] <= 1
 y[17,1] <= 1
 y[17,2] <= 1
 y[17,3] <= 1
 y[17,4] <= 1
 y[17,5] <= 1
 y[17,6] <= 1
 y[17,7] <= 1
 y[17,8] <= 1
 y[17,9] <= 1
 y[17,10] <= 1
 y[17,11] <= 1
 y[17,12] <= 1
 y[17,13] <= 1
 y[17,14] <= 1
 y[17,15] <= 1
 y[17,16] <= 1
 y[17,17] <= 1
 y[17,18] <= 1
 y[17,19] <= 1
 y[18,0] <= 1
 y[18,1] <= 1
 y[18,2] <= 1
 y[18,3] <= 1
 y[18,4] <= 1
 y[18,5] <= 1
 y[18,6] <= 1
 y[18,7] <= 1
 y[18,8] <= 1
 y[18,9] <= 1
 y[18,10] <= 1
 y[18,11] <= 1
 y[18,12] <= 1
 y[18,13] <= 1
 y[18,14] <= 1
 y[18,15] <= 1
 y[18,16] <= 1
 y[18,17] <= 1
 y[18,18] <= 1
 y[18,19] <= 1
 y[19,0] <= 1
 y[19,1] <= 1
 y[19,2] <= 1
 y[19,3] <= 1
 y[19,4] <= 1
 y[19,5] <= 1
 y[19,6] <= 1
 y[19,7] <= 1
 y[19,8] <= 1
 y[19,9] <= 1
 y[19,10] <= 1
 y[19,11] <= 1
 y[19,12] <= 1
 y[19,13] <= 1
 y[19,14] <= 1
 y[19,15] <= 1
 y[19,16] <= 1
 y[19,17] <= 1
 y[19,18] <= 1
 y[19,19] <= 1
 g free
End
